networks/zoo_168_6972/zoo_168_6972-lower.txt
Number of groups: 86
Flow 43: {44 128 0} 
Flow 64: {34 20 0} {20 15 0} {15 59 0} {59 58 0} {58 65 0} {65 149 0} 
Flow 127: {45 129 0} 
Flow 128: {46 130 0} 
Flow 154: {72 156 0} 
Flow 355: {5 66 0} {66 6 0} {6 26 0} {26 24 0} {24 108 0} 
Flow 440: {26 110 0} 
Flow 442: {28 112 0} 
Flow 631: {7 55 0} {55 49 0} {49 21 0} {21 23 0} {23 19 0} {19 17 0} {17 64 0} {64 63 0} {63 51 0} {51 135 0} 
Flow 1027: {24 32 0} {32 116 0} 
Flow 1028: {13 60 0} {60 20 0} {20 33 0} {33 117 0} 
Flow 1159: {37 81 0} {81 165 0} 
Flow 1282: {16 20 0} {20 39 0} {39 38 0} {38 122 0} 
Flow 1303: {16 59 0} {59 143 0} 
Flow 1346: {17 19 0} {19 103 0} 
Flow 1478: {18 50 0} {50 73 0} {73 52 0} {52 68 0} {68 152 0} 
Flow 1516: {23 107 0} 
Flow 1592: {15 99 0} 
Flow 1708: {49 133 0} 
Flow 1847: {21 105 0} 
Flow 1917: {8 92 0} 
Flow 2020: {25 29 0} {29 113 0} 
Flow 2057: {29 27 0} {27 28 0} {28 6 0} {6 66 0} {66 150 0} 
Flow 2180: {27 29 0} {29 25 0} {25 32 0} {32 19 0} {19 22 0} {22 106 0} 
Flow 2497: {31 46 0} {46 2 0} {2 72 0} {72 7 0} {7 91 0} 
Flow 2715: {33 20 0} {20 60 0} {60 144 0} 
Flow 2794: {12 56 0} {56 140 0} 
Flow 2861: {42 41 0} {41 40 0} {40 124 0} 
Flow 2864: {78 79 0} {79 48 0} {48 47 0} {47 70 0} {70 62 0} {62 22 0} {22 19 0} {19 23 0} {23 21 0} {21 49 0} {49 55 0} {55 7 0} {7 72 0} {72 2 0} {2 45 0} {45 1 0} {1 44 0} {44 42 0} {42 43 0} {43 127 0} 
Flow 2901: {35 80 0} {80 164 0} 
Flow 2909: {54 4 0} {4 88 0} 
Flow 3091: {39 20 0} {20 104 0} 
Flow 3181: {6 28 0} {28 27 0} {27 111 0} 
Flow 3214: {38 61 0} {61 145 0} 
Flow 3220: {39 60 0} {60 13 0} {13 67 0} {67 151 0} 
Flow 3277: {40 41 0} {41 125 0} 
Flow 3373: {36 54 0} {54 138 0} 
Flow 3439: {41 36 0} {36 120 0} 
Flow 3464: {22 62 0} {62 146 0} 
Flow 3528: {43 42 0} {42 126 0} 
Flow 3653: {1 85 0} 
Flow 3654: {2 86 0} 
Flow 3657: {76 9 0} {9 10 0} {10 11 0} {11 5 0} {5 89 0} 
Flow 3865: {47 48 0} {48 132 0} 
Flow 3919: {48 79 0} {79 18 0} {18 102 0} 
Flow 4038: {55 139 0} 
Flow 4145: {50 18 0} {18 79 0} {79 163 0} 
Flow 4184: {19 32 0} {32 24 0} {24 26 0} {26 6 0} {6 53 0} {53 61 0} {61 34 0} {34 118 0} 
Flow 4402: {4 3 0} {3 87 0} 
Flow 4578: {56 67 0} {67 13 0} {13 97 0} 
Flow 4731: {57 84 0} {84 168 0} 
Flow 4743: {59 15 0} {15 20 0} {20 34 0} {34 61 0} {61 12 0} {12 96 0} 
Flow 4872: {58 142 0} 
Flow 4908: {67 56 0} {56 11 0} {11 95 0} 
Flow 4936: {60 39 0} {39 123 0} 
Flow 5163: {64 17 0} {17 101 0} 
Flow 5196: {73 50 0} {50 134 0} 
Flow 5215: {51 71 0} {71 69 0} {69 70 0} {70 154 0} 
Flow 5318: {53 6 0} {6 90 0} 
Flow 5328: {65 58 0} {58 59 0} {59 16 0} {16 100 0} 
Flow 5494: {20 16 0} 
Flow 5509: {14 76 0} {76 30 0} {30 8 0} {8 31 0} {31 115 0} 
Flow 5629: {68 69 0} {69 153 0} 
Flow 5635: {79 75 0} {75 159 0} 
Flow 5774: {70 47 0} {47 131 0} 
Flow 5874: {71 51 0} {51 63 0} {63 64 0} {64 148 0} 
Flow 6039: {63 147 0} 
Flow 6098: {61 38 0} {38 39 0} 
Flow 6140: {74 75 0} {75 79 0} {79 78 0} {78 80 0} {80 35 0} {35 82 0} {82 166 0} 
Flow 6216: {75 74 0} {74 158 0} 
Flow 6255: {30 114 0} 
Flow 6298: {52 73 0} {73 157 0} 
Flow 6385: {77 78 0} {78 162 0} 
Flow 6633: {9 76 0} {76 160 0} 
Flow 6634: {80 78 0} {78 77 0} {77 161 0} 
Flow 6654: {81 37 0} {37 14 0} {14 98 0} 
Flow 6733: {66 5 0} {5 11 0} {11 10 0} {10 94 0} 
Flow 6760: {11 56 0} {56 14 0} {14 37 0} {37 121 0} 
Flow 6805: {82 35 0} {35 83 0} {83 167 0} 
Flow 6815: {10 9 0} {9 93 0} 
Flow 6841: {83 35 0} {35 119 0} 
Flow 6863: {3 57 0} {57 141 0} 
Flow 6877: {69 71 0} {71 155 0} 
Flow 6914: {32 25 0} {25 109 0} 
Flow 6941: {62 70 0} {70 69 0} {69 68 0} {68 52 0} {52 136 0} 
Flow 6942: {84 57 0} {57 3 0} {3 4 0} {4 54 0} {54 36 0} {36 41 0} {41 42 0} {42 44 0} {44 1 0} {1 45 0} {45 2 0} {2 46 0} {46 31 0} {31 8 0} {8 30 0} {30 76 0} {76 14 0} {14 56 0} {56 12 0} {12 61 0} {61 53 0} {53 137 0} 
Time taken running everything: 79 seconds
