networks/zoo_168_6972/zoo_168_6972-lower.sol
<?xml version = "1.0" encoding="UTF-8" standalone="yes"?>
<CPLEXSolution version="1.2">
 <header
   problemName="networks/zoo_168_6972/zoo_168_6972-lower.lp"
   solutionName="incumbent"
   solutionIndex="-1"
   objectiveValue="84"
   solutionTypeValue="3"
   solutionTypeString="primal"
   solutionStatusValue="101"
   solutionStatusString="integer optimal solution"
   solutionMethodString="mip"
   primalFeasible="1"
   dualFeasible="1"
   MIPNodes="0"
   MIPIterations="0"
   writeLevel="3"/>
 <quality
   epInt="1.0000000000000001e-05"
   epRHS="9.9999999999999995e-07"
   maxIntInfeas="0"
   maxPrimalInfeas="0"
   maxX="1"
   maxSlack="1"/>
 <variables>
  <variable name="Y(1,2)" index="1" value="1"/>
  <variable name="Y(2,3)" index="170" value="1"/>
  <variable name="Y(3,4)" index="339" value="1"/>
  <variable name="Y(4,5)" index="508" value="1"/>
  <variable name="Y(5,6)" index="677" value="1"/>
  <variable name="Y(6,7)" index="846" value="1"/>
  <variable name="Y(7,8)" index="1015" value="1"/>
  <variable name="Y(8,9)" index="1184" value="1"/>
  <variable name="Y(9,10)" index="1353" value="1"/>
  <variable name="Y(10,11)" index="1522" value="1"/>
  <variable name="Y(11,12)" index="1691" value="1"/>
  <variable name="Y(12,13)" index="1860" value="1"/>
  <variable name="Y(13,14)" index="2029" value="1"/>
  <variable name="Y(14,15)" index="2198" value="1"/>
  <variable name="Y(15,16)" index="2367" value="1"/>
  <variable name="Y(16,17)" index="2536" value="1"/>
  <variable name="Y(17,18)" index="2705" value="1"/>
  <variable name="Y(18,19)" index="2874" value="1"/>
  <variable name="Y(19,20)" index="3043" value="1"/>
  <variable name="Y(20,21)" index="3212" value="1"/>
  <variable name="Y(21,22)" index="3381" value="1"/>
  <variable name="Y(22,23)" index="3550" value="1"/>
  <variable name="Y(23,24)" index="3719" value="1"/>
  <variable name="Y(24,25)" index="3888" value="1"/>
  <variable name="Y(25,26)" index="4057" value="1"/>
  <variable name="Y(26,27)" index="4226" value="1"/>
  <variable name="Y(27,28)" index="4395" value="1"/>
  <variable name="Y(28,29)" index="4564" value="1"/>
  <variable name="Y(29,30)" index="4733" value="1"/>
  <variable name="Y(30,31)" index="4902" value="1"/>
  <variable name="Y(31,32)" index="5071" value="1"/>
  <variable name="Y(32,33)" index="5240" value="1"/>
  <variable name="Y(33,34)" index="5409" value="1"/>
  <variable name="Y(34,35)" index="5578" value="1"/>
  <variable name="Y(35,36)" index="5747" value="1"/>
  <variable name="Y(36,37)" index="5916" value="1"/>
  <variable name="Y(37,38)" index="6085" value="1"/>
  <variable name="Y(38,39)" index="6254" value="1"/>
  <variable name="Y(39,40)" index="6423" value="1"/>
  <variable name="Y(40,41)" index="6592" value="1"/>
  <variable name="Y(41,42)" index="6761" value="1"/>
  <variable name="Y(42,43)" index="6930" value="1"/>
  <variable name="Y(43,44)" index="7099" value="1"/>
  <variable name="Y(44,45)" index="7268" value="1"/>
  <variable name="Y(45,46)" index="7437" value="1"/>
  <variable name="Y(46,47)" index="7606" value="1"/>
  <variable name="Y(47,48)" index="7775" value="1"/>
  <variable name="Y(48,49)" index="7944" value="1"/>
  <variable name="Y(49,50)" index="8113" value="1"/>
  <variable name="Y(50,51)" index="8282" value="1"/>
  <variable name="Y(51,52)" index="8451" value="1"/>
  <variable name="Y(52,53)" index="8620" value="1"/>
  <variable name="Y(53,54)" index="8789" value="1"/>
  <variable name="Y(54,55)" index="8958" value="1"/>
  <variable name="Y(55,56)" index="9127" value="1"/>
  <variable name="Y(56,57)" index="9296" value="1"/>
  <variable name="Y(57,58)" index="9465" value="1"/>
  <variable name="Y(58,59)" index="9634" value="1"/>
  <variable name="Y(59,60)" index="9803" value="1"/>
  <variable name="Y(60,61)" index="9972" value="1"/>
  <variable name="Y(61,62)" index="10141" value="1"/>
  <variable name="Y(62,63)" index="10310" value="1"/>
  <variable name="Y(63,64)" index="10479" value="1"/>
  <variable name="Y(64,65)" index="10648" value="1"/>
  <variable name="Y(65,66)" index="10817" value="1"/>
  <variable name="Y(66,67)" index="10986" value="1"/>
  <variable name="Y(67,68)" index="11155" value="1"/>
  <variable name="Y(68,69)" index="11324" value="1"/>
  <variable name="Y(69,70)" index="11493" value="1"/>
  <variable name="Y(70,71)" index="11662" value="1"/>
  <variable name="Y(71,72)" index="11831" value="1"/>
  <variable name="Y(72,73)" index="12000" value="1"/>
  <variable name="Y(73,74)" index="12169" value="1"/>
  <variable name="Y(74,75)" index="12338" value="1"/>
  <variable name="Y(75,76)" index="12507" value="1"/>
  <variable name="Y(76,77)" index="12676" value="1"/>
  <variable name="Y(77,78)" index="12845" value="1"/>
  <variable name="Y(78,79)" index="13014" value="1"/>
  <variable name="Y(79,80)" index="13183" value="1"/>
  <variable name="Y(80,81)" index="13352" value="1"/>
  <variable name="Y(81,82)" index="13521" value="1"/>
  <variable name="Y(82,83)" index="13690" value="1"/>
  <variable name="Y(83,84)" index="13859" value="1"/>
  <variable name="Y(84,1)" index="13944" value="1"/>
  <variable name="X(1,44,3)" index="1171298" value="1"/>
  <variable name="X(1,45,4)" index="1178271" value="1"/>
  <variable name="X(1,85,84)" index="1185323" value="1"/>
  <variable name="X(2,45,85)" index="1192296" value="1"/>
  <variable name="X(2,46,5)" index="1199188" value="1"/>
  <variable name="X(2,72,16)" index="1206171" value="1"/>
  <variable name="X(2,86,1)" index="1213128" value="1"/>
  <variable name="X(3,4,167)" index="1220266" value="1"/>
  <variable name="X(3,57,56)" index="1227127" value="1"/>
  <variable name="X(3,87,2)" index="1234045" value="1"/>
  <variable name="X(4,3,2)" index="1241017" value="1"/>
  <variable name="X(4,54,167)" index="1248154" value="1"/>
  <variable name="X(4,88,3)" index="1254962" value="1"/>
  <variable name="X(5,11,333)" index="1262264" value="1"/>
  <variable name="X(5,66,5)" index="1268908" value="1"/>
  <variable name="X(5,89,4)" index="1275879" value="1"/>
  <variable name="X(6,26,348)" index="1283195" value="1"/>
  <variable name="X(6,28,27)" index="1289846" value="1"/>
  <variable name="X(6,53,347)" index="1297138" value="1"/>
  <variable name="X(6,66,417)" index="1304180" value="1"/>
  <variable name="X(6,90,5)" index="1310740" value="1"/>
  <variable name="X(7,55,17)" index="1317724" value="1"/>
  <variable name="X(7,72,499)" index="1325178" value="1"/>
  <variable name="X(7,91,6)" index="1331657" value="1"/>
  <variable name="X(8,30,5)" index="1338628" value="1"/>
  <variable name="X(8,31,334)" index="1345929" value="1"/>
  <variable name="X(8,92,7)" index="1352574" value="1"/>
  <variable name="X(9,10,4)" index="1359543" value="1"/>
  <variable name="X(9,76,333)" index="1366844" value="1"/>
  <variable name="X(9,93,8)" index="1373491" value="1"/>
  <variable name="X(10,9,333)" index="1380788" value="1"/>
  <variable name="X(10,11,4)" index="1387431" value="1"/>
  <variable name="X(10,94,9)" index="1394408" value="1"/>
  <variable name="X(11,5,4)" index="1401375" value="1"/>
  <variable name="X(11,10,333)" index="1408676" value="1"/>
  <variable name="X(11,56,343)" index="1415658" value="1"/>
  <variable name="X(11,95,10)" index="1422297" value="1"/>
  <variable name="X(12,56,914)" index="1430173" value="1"/>
  <variable name="X(12,61,14)" index="1436245" value="1"/>
  <variable name="X(12,96,11)" index="1443214" value="1"/>
  <variable name="X(13,60,59)" index="1450234" value="1"/>
  <variable name="X(13,67,997)" index="1458144" value="1"/>
  <variable name="X(13,97,12)" index="1464131" value="1"/>
  <variable name="X(14,37,36)" index="1471127" value="1"/>
  <variable name="X(14,56,12)" index="1478075" value="1"/>
  <variable name="X(14,76,914)" index="1485949" value="1"/>
  <variable name="X(14,98,13)" index="1492020" value="1"/>
  <variable name="X(15,20,1163)" index="1500142" value="1"/>
  <variable name="X(15,59,57)" index="1506008" value="1"/>
  <variable name="X(15,99,14)" index="1512937" value="1"/>
  <variable name="X(16,20,1246)" index="1521141" value="1"/>
  <variable name="X(16,59,1260)" index="1528127" value="1"/>
  <variable name="X(16,100,15)" index="1533854" value="1"/>
  <variable name="X(17,19,1329)" index="1542140" value="1"/>
  <variable name="X(17,64,50)" index="1547833" value="1"/>
  <variable name="X(17,101,16)" index="1554771" value="1"/>
  <variable name="X(18,50,49)" index="1561776" value="1"/>
  <variable name="X(18,79,1412)" index="1570111" value="1"/>
  <variable name="X(18,102,17)" index="1575688" value="1"/>
  <variable name="X(19,17,16)" index="1582659" value="1"/>
  <variable name="X(19,22,21)" index="1589636" value="1"/>
  <variable name="X(19,23,352)" index="1596939" value="1"/>
  <variable name="X(19,32,24)" index="1603583" value="1"/>
  <variable name="X(19,103,18)" index="1610549" value="1"/>
  <variable name="X(20,15,14)" index="1617517" value="1"/>
  <variable name="X(20,16,15)" index="1624490" value="1"/>
  <variable name="X(20,33,32)" index="1631479" value="1"/>
  <variable name="X(20,34,1163)" index="1639582" value="1"/>
  <variable name="X(20,39,1199)" index="1646590" value="1"/>
  <variable name="X(20,60,474)" index="1652837" value="1"/>
  <variable name="X(20,104,19)" index="1659354" value="1"/>
  <variable name="X(21,23,17)" index="1666324" value="1"/>
  <variable name="X(21,49,380)" index="1673659" value="1"/>
  <variable name="X(21,105,20)" index="1680271" value="1"/>
  <variable name="X(22,19,1413)" index="1688636" value="1"/>
  <variable name="X(22,62,34)" index="1694229" value="1"/>
  <variable name="X(22,106,21)" index="1701188" value="1"/>
  <variable name="X(23,19,17)" index="1708156" value="1"/>
  <variable name="X(23,21,352)" index="1715463" value="1"/>
  <variable name="X(23,107,22)" index="1722105" value="1"/>
  <variable name="X(24,26,108)" index="1729163" value="1"/>
  <variable name="X(24,32,348)" index="1736375" value="1"/>
  <variable name="X(24,108,23)" index="1743022" value="1"/>
  <variable name="X(25,29,26)" index="1749997" value="1"/>
  <variable name="X(25,32,1993)" index="1758936" value="1"/>
  <variable name="X(25,109,24)" index="1763939" value="1"/>
  <variable name="X(26,6,504)" index="1771391" value="1"/>
  <variable name="X(26,24,348)" index="1778207" value="1"/>
  <variable name="X(26,110,25)" index="1784856" value="1"/>
  <variable name="X(27,28,1997)" index="1793800" value="1"/>
  <variable name="X(27,29,356)" index="1799131" value="1"/>
  <variable name="X(27,111,26)" index="1805773" value="1"/>
  <variable name="X(28,6,1997)" index="1814716" value="1"/>
  <variable name="X(28,27,356)" index="1820047" value="1"/>
  <variable name="X(28,112,27)" index="1826690" value="1"/>
  <variable name="X(29,25,356)" index="1833991" value="1"/>
  <variable name="X(29,27,26)" index="1840633" value="1"/>
  <variable name="X(29,113,28)" index="1847607" value="1"/>
  <variable name="X(30,8,334)" index="1854885" value="1"/>
  <variable name="X(30,76,5)" index="1861528" value="1"/>
  <variable name="X(30,114,29)" index="1868524" value="1"/>
  <variable name="X(31,8,5)" index="1875472" value="1"/>
  <variable name="X(31,46,334)" index="1882773" value="1"/>
  <variable name="X(31,115,30)" index="1889441" value="1"/>
  <variable name="X(32,19,348)" index="1896731" value="1"/>
  <variable name="X(32,24,25)" index="1903380" value="1"/>
  <variable name="X(32,25,24)" index="1910351" value="1"/>
  <variable name="X(32,116,31)" index="1917330" value="1"/>
  <variable name="X(33,20,2657)" index="1926928" value="1"/>
  <variable name="X(33,117,32)" index="1931275" value="1"/>
  <variable name="X(34,20,15)" index="1938230" value="1"/>
  <variable name="X(34,61,1164)" index="1946351" value="1"/>
  <variable name="X(34,118,33)" index="1952192" value="1"/>
  <variable name="X(35,80,2823)" index="1961954" value="1"/>
  <variable name="X(35,82,81)" index="1966184" value="1"/>
  <variable name="X(35,83,82)" index="1973157" value="1"/>
  <variable name="X(35,119,34)" index="1980081" value="1"/>
  <variable name="X(36,41,167)" index="1987186" value="1"/>
  <variable name="X(36,54,2)" index="1993993" value="1"/>
  <variable name="X(36,120,35)" index="2000998" value="1"/>
  <variable name="X(37,14,2989)" index="2010924" value="1"/>
  <variable name="X(37,81,80)" index="2014987" value="1"/>
  <variable name="X(37,121,36)" index="2021915" value="1"/>
  <variable name="X(38,39,38)" index="2028889" value="1"/>
  <variable name="X(38,61,3072)" index="2038895" value="1"/>
  <variable name="X(38,122,37)" index="2042832" value="1"/>
  <variable name="X(39,20,3086)" index="2052853" value="1"/>
  <variable name="X(39,38,1033)" index="2057772" value="1"/>
  <variable name="X(39,60,3084)" index="2066795" value="1"/>
  <variable name="X(39,123,38)" index="2070721" value="1"/>
  <variable name="X(40,41,3238)" index="2080893" value="1"/>
  <variable name="X(40,124,39)" index="2084666" value="1"/>
  <variable name="X(41,36,2)" index="2091601" value="1"/>
  <variable name="X(41,40,39)" index="2098610" value="1"/>
  <variable name="X(41,42,168)" index="2105711" value="1"/>
  <variable name="X(41,125,40)" index="2112555" value="1"/>
  <variable name="X(42,41,3)" index="2119490" value="1"/>
  <variable name="X(42,43,42)" index="2126501" value="1"/>
  <variable name="X(42,44,168)" index="2133599" value="1"/>
  <variable name="X(42,126,41)" index="2140444" value="1"/>
  <variable name="X(43,42,3487)" index="2150862" value="1"/>
  <variable name="X(43,127,42)" index="2154389" value="1"/>
  <variable name="X(44,1,168)" index="2161487" value="1"/>
  <variable name="X(44,42,3)" index="2168294" value="1"/>
  <variable name="X(44,128,43)" index="2175306" value="1"/>
  <variable name="X(45,1,85)" index="2182320" value="1"/>
  <variable name="X(45,2,4)" index="2189211" value="1"/>
  <variable name="X(45,129,44)" index="2196223" value="1"/>
  <variable name="X(46,2,334)" index="2203485" value="1"/>
  <variable name="X(46,31,5)" index="2210128" value="1"/>
  <variable name="X(46,130,45)" index="2217140" value="1"/>
  <variable name="X(47,48,34)" index="2224101" value="1"/>
  <variable name="X(47,70,1413)" index="2232452" value="1"/>
  <variable name="X(47,131,46)" index="2238057" value="1"/>
  <variable name="X(48,47,1413)" index="2246396" value="1"/>
  <variable name="X(48,79,34)" index="2251989" value="1"/>
  <variable name="X(48,132,47)" index="2258974" value="1"/>
  <variable name="X(49,21,17)" index="2265916" value="1"/>
  <variable name="X(49,55,386)" index="2273257" value="1"/>
  <variable name="X(49,133,48)" index="2279891" value="1"/>
  <variable name="X(50,18,4068)" index="2290883" value="1"/>
  <variable name="X(50,73,1461)" index="2295248" value="1"/>
  <variable name="X(50,134,49)" index="2300808" value="1"/>
  <variable name="X(51,63,1473)" index="2309204" value="1"/>
  <variable name="X(51,71,70)" index="2314773" value="1"/>
  <variable name="X(51,135,50)" index="2321725" value="1"/>
  <variable name="X(52,68,1461)" index="2330108" value="1"/>
  <variable name="X(52,73,72)" index="2335691" value="1"/>
  <variable name="X(52,136,51)" index="2342642" value="1"/>
  <variable name="X(53,6,929)" index="2350492" value="1"/>
  <variable name="X(53,61,347)" index="2356882" value="1"/>
  <variable name="X(53,137,52)" index="2363559" value="1"/>
  <variable name="X(54,4,2)" index="2370481" value="1"/>
  <variable name="X(54,36,167)" index="2377618" value="1"/>
  <variable name="X(54,138,53)" index="2384476" value="1"/>
  <variable name="X(55,7,421)" index="2391816" value="1"/>
  <variable name="X(55,49,17)" index="2398384" value="1"/>
  <variable name="X(55,139,54)" index="2405393" value="1"/>
  <variable name="X(56,11,918)" index="2413229" value="1"/>
  <variable name="X(56,12,11)" index="2419294" value="1"/>
  <variable name="X(56,14,368)" index="2426623" value="1"/>
  <variable name="X(56,67,12)" index="2433239" value="1"/>
  <variable name="X(56,140,55)" index="2440254" value="1"/>
  <variable name="X(57,3,4649)" index="2451820" value="1"/>
  <variable name="X(57,84,83)" index="2454226" value="1"/>
  <variable name="X(57,141,56)" index="2461171" value="1"/>
  <variable name="X(58,59,4732)" index="2472819" value="1"/>
  <variable name="X(58,65,64)" index="2475123" value="1"/>
  <variable name="X(58,142,57)" index="2482088" value="1"/>
  <variable name="X(59,15,1260)" index="2490263" value="1"/>
  <variable name="X(59,16,1177)" index="2497152" value="1"/>
  <variable name="X(59,58,57)" index="2503004" value="1"/>
  <variable name="X(59,143,58)" index="2509977" value="1"/>
  <variable name="X(60,13,1175)" index="2518066" value="1"/>
  <variable name="X(60,20,1010)" index="2524873" value="1"/>
  <variable name="X(60,39,1033)" index="2531868" value="1"/>
  <variable name="X(60,144,59)" index="2537866" value="1"/>
  <variable name="X(61,12,426)" index="2545205" value="1"/>
  <variable name="X(61,34,15)" index="2551766" value="1"/>
  <variable name="X(61,38,37)" index="2558760" value="1"/>
  <variable name="X(61,53,135)" index="2565830" value="1"/>
  <variable name="X(61,145,60)" index="2572727" value="1"/>
  <variable name="X(62,22,1413)" index="2581052" value="1"/>
  <variable name="X(62,70,34)" index="2586645" value="1"/>
  <variable name="X(62,146,61)" index="2593644" value="1"/>
  <variable name="X(63,51,50)" index="2600605" value="1"/>
  <variable name="X(63,64,1474)" index="2609001" value="1"/>
  <variable name="X(63,147,62)" index="2614561" value="1"/>
  <variable name="X(64,17,4151)" index="2625622" value="1"/>
  <variable name="X(64,63,50)" index="2628493" value="1"/>
  <variable name="X(64,148,63)" index="2635478" value="1"/>
  <variable name="X(65,58,5313)" index="2647700" value="1"/>
  <variable name="X(65,149,64)" index="2649423" value="1"/>
  <variable name="X(66,5,416)" index="2656747" value="1"/>
  <variable name="X(66,6,27)" index="2663330" value="1"/>
  <variable name="X(66,150,65)" index="2670340" value="1"/>
  <variable name="X(67,13,12)" index="2677259" value="1"/>
  <variable name="X(67,56,997)" index="2685216" value="1"/>
  <variable name="X(67,151,66)" index="2691257" value="1"/>
  <variable name="X(68,52,51)" index="2698214" value="1"/>
  <variable name="X(68,69,1461)" index="2706596" value="1"/>
  <variable name="X(68,152,67)" index="2712174" value="1"/>
  <variable name="X(69,68,51)" index="2719130" value="1"/>
  <variable name="X(69,70,4185)" index="2730236" value="1"/>
  <variable name="X(69,71,1461)" index="2734484" value="1"/>
  <variable name="X(69,153,68)" index="2740063" value="1"/>
  <variable name="X(70,47,34)" index="2747001" value="1"/>
  <variable name="X(70,62,1413)" index="2755352" value="1"/>
  <variable name="X(70,69,51)" index="2760962" value="1"/>
  <variable name="X(70,154,69)" index="2767952" value="1"/>
  <variable name="X(71,51,1461)" index="2776316" value="1"/>
  <variable name="X(71,69,4168)" index="2785995" value="1"/>
  <variable name="X(71,155,70)" index="2788869" value="1"/>
  <variable name="X(72,2,500)" index="2796271" value="1"/>
  <variable name="X(72,7,16)" index="2802759" value="1"/>
  <variable name="X(72,156,71)" index="2809786" value="1"/>
  <variable name="X(73,50,4168)" index="2820855" value="1"/>
  <variable name="X(73,52,1461)" index="2825120" value="1"/>
  <variable name="X(73,157,72)" index="2830703" value="1"/>
  <variable name="X(74,75,6060)" index="2843663" value="1"/>
  <variable name="X(74,158,73)" index="2844648" value="1"/>
  <variable name="X(75,74,73)" index="2851620" value="1"/>
  <variable name="X(75,79,6060)" index="2864579" value="1"/>
  <variable name="X(75,159,74)" index="2865565" value="1"/>
  <variable name="X(76,9,4)" index="2872467" value="1"/>
  <variable name="X(76,14,11)" index="2879446" value="1"/>
  <variable name="X(76,30,334)" index="2886741" value="1"/>
  <variable name="X(76,160,75)" index="2893454" value="1"/>
  <variable name="X(77,78,6309)" index="2906660" value="1"/>
  <variable name="X(77,161,76)" index="2907399" value="1"/>
  <variable name="X(78,77,76)" index="2914371" value="1"/>
  <variable name="X(78,79,2823)" index="2924090" value="1"/>
  <variable name="X(78,80,34)" index="2928273" value="1"/>
  <variable name="X(78,162,77)" index="2935288" value="1"/>
  <variable name="X(79,18,17)" index="2942200" value="1"/>
  <variable name="X(79,48,1413)" index="2950568" value="1"/>
  <variable name="X(79,75,73)" index="2956200" value="1"/>
  <variable name="X(79,78,34)" index="2963133" value="1"/>
  <variable name="X(79,163,78)" index="2970149" value="1"/>
  <variable name="X(80,35,34)" index="2977077" value="1"/>
  <variable name="X(80,78,2823)" index="2986838" value="1"/>
  <variable name="X(80,164,79)" index="2991066" value="1"/>
  <variable name="X(81,37,6641)" index="3004600" value="1"/>
  <variable name="X(81,165,80)" index="3005011" value="1"/>
  <variable name="X(82,35,6724)" index="3018627" value="1"/>
  <variable name="X(82,166,81)" index="3018956" value="1"/>
  <variable name="X(83,35,6807)" index="3032654" value="1"/>
  <variable name="X(83,167,82)" index="3032901" value="1"/>
  <variable name="X(84,57,6890)" index="3046681" value="1"/>
  <variable name="X(84,168,83)" index="3046846" value="1"/>
 </variables>
</CPLEXSolution>
